c strEdges: 125  randomEdges: 504 
c degrees:  1  2 
c girth: Inf max: -43.604516  
c Hgirth mixed MAXCUT instance
c generated from an undirected graph
c to solve unweighted MaxCut
p cnf 140 1258
123 81 0
-123 -81 0
123 36 0
-123 -36 0
60 12 0
-60 -12 0
60 52 0
-60 -52 0
136 78 0
-136 -78 0
136 102 0
-136 -102 0
57 108 0
-57 -108 0
57 98 0
-57 -98 0
96 111 0
-96 -111 0
96 81 0
-96 -81 0
67 8 0
-67 -8 0
67 138 0
-67 -138 0
21 131 0
-21 -131 0
21 103 0
-21 -103 0
113 90 0
-113 -90 0
113 111 0
-113 -111 0
80 103 0
-80 -103 0
80 84 0
-80 -84 0
26 61 0
-26 -61 0
26 133 0
-26 -133 0
35 36 0
-35 -36 0
35 19 0
-35 -19 0
120 6 0
-120 -6 0
120 12 0
-120 -12 0
2 102 0
-2 -102 0
2 132 0
-2 -132 0
13 17 0
-13 -17 0
13 124 0
-13 -124 0
97 94 0
-97 -94 0
97 44 0
-97 -44 0
137 62 0
-137 -62 0
137 94 0
-137 -94 0
27 54 0
-27 -54 0
27 30 0
-27 -30 0
107 34 0
-107 -34 0
63 14 0
-63 -14 0
9 132 0
-9 -132 0
9 14 0
-9 -14 0
48 139 0
-48 -139 0
48 5 0
-48 -5 0
130 47 0
-130 -47 0
140 122 0
-140 -122 0
140 34 0
-140 -34 0
56 105 0
-56 -105 0
56 20 0
-56 -20 0
58 20 0
-58 -20 0
58 127 0
-58 -127 0
110 44 0
-110 -44 0
110 55 0
-110 -55 0
43 53 0
-43 -53 0
43 90 0
-43 -90 0
41 30 0
-41 -30 0
41 92 0
-41 -92 0
28 83 0
-28 -83 0
64 91 0
-64 -91 0
64 61 0
-64 -61 0
128 19 0
-128 -19 0
128 54 0
-128 -54 0
86 32 0
-86 -32 0
86 101 0
-86 -101 0
106 118 0
-106 -118 0
106 105 0
-106 -105 0
25 99 0
-25 -99 0
25 71 0
-25 -71 0
70 74 0
-70 -74 0
70 131 0
-70 -131 0
49 116 0
-49 -116 0
49 119 0
-49 -119 0
73 45 0
-73 -45 0
73 1 0
-73 -1 0
88 38 0
-88 -38 0
88 59 0
-88 -59 0
85 42 0
-85 -42 0
72 119 0
-72 -119 0
72 3 0
-72 -3 0
29 1 0
-29 -1 0
15 66 0
-15 -66 0
69 87 0
-69 -87 0
69 23 0
-69 -23 0
79 52 0
-79 -52 0
79 114 0
-79 -114 0
40 100 0
-40 -100 0
112 65 0
-112 -65 0
117 133 0
-117 -133 0
117 139 0
-117 -139 0
104 18 0
-104 -18 0
82 114 0
-82 -114 0
82 74 0
-82 -74 0
46 95 0
-46 -95 0
46 83 0
-46 -83 0
51 33 0
-51 -33 0
51 65 0
-51 -65 0
93 11 0
-93 -11 0
93 8 0
-93 -8 0
135 84 0
-135 -84 0
121 101 0
-121 -101 0
121 6 0
-121 -6 0
39 55 0
-39 -55 0
39 122 0
-39 -122 0
129 138 0
-129 -138 0
129 45 0
-129 -45 0
10 23 0
-10 -23 0
22 59 0
-22 -59 0
22 66 0
-22 -66 0
89 134 0
-89 -134 0
68 31 0
-68 -31 0
68 99 0
-68 -99 0
16 5 0
-16 -5 0
16 32 0
-16 -32 0
76 92 0
-76 -92 0
4 98 0
-4 -98 0
4 62 0
-4 -62 0
7 75 0
-7 -75 0
7 50 0
-7 -50 0
126 124 0
-126 -124 0
37 3 0
-37 -3 0
37 17 0
-37 -17 0
77 50 0
-77 -50 0
77 53 0
-77 -53 0
109 127 0
-109 -127 0
109 91 0
-109 -91 0
115 71 0
-115 -71 0
115 47 0
-115 -47 0
24 125 0
-24 -125 0
24 31 0
-24 -31 0
9 83 0
-9 -83 0
26 54 0
-26 -54 0
45 3 0
-45 -3 0
39 17 0
-39 -17 0
105 53 0
-105 -53 0
120 82 0
-120 -82 0
83 42 0
-83 -42 0
94 122 0
-94 -122 0
106 91 0
-106 -91 0
119 134 0
-119 -134 0
107 134 0
-107 -134 0
63 131 0
-63 -131 0
114 5 0
-114 -5 0
82 37 0
-82 -37 0
88 84 0
-88 -84 0
85 82 0
-85 -82 0
81 138 0
-81 -138 0
103 59 0
-103 -59 0
22 18 0
-22 -18 0
107 1 0
-107 -1 0
26 32 0
-26 -32 0
102 91 0
-102 -91 0
129 6 0
-129 -6 0
111 124 0
-111 -124 0
85 29 0
-85 -29 0
113 118 0
-113 -118 0
121 84 0
-121 -84 0
93 118 0
-93 -118 0
63 104 0
-63 -104 0
82 62 0
-82 -62 0
80 130 0
-80 -130 0
39 22 0
-39 -22 0
14 1 0
-14 -1 0
80 28 0
-80 -28 0
100 18 0
-100 -18 0
103 114 0
-103 -114 0
46 98 0
-46 -98 0
16 18 0
-16 -18 0
77 52 0
-77 -52 0
65 92 0
-65 -92 0
59 124 0
-59 -124 0
135 109 0
-135 -109 0
27 72 0
-27 -72 0
36 71 0
-36 -71 0
130 86 0
-130 -86 0
9 70 0
-9 -70 0
69 92 0
-69 -92 0
61 59 0
-61 -59 0
136 55 0
-136 -55 0
40 38 0
-40 -38 0
88 116 0
-88 -116 0
28 5 0
-28 -5 0
62 47 0
-62 -47 0
60 135 0
-60 -135 0
22 118 0
-22 -118 0
97 102 0
-97 -102 0
78 14 0
-78 -14 0
66 138 0
-66 -138 0
81 114 0
-81 -114 0
137 140 0
-137 -140 0
6 71 0
-6 -71 0
120 61 0
-120 -61 0
133 18 0
-133 -18 0
56 72 0
-56 -72 0
29 66 0
-29 -66 0
48 50 0
-48 -50 0
61 3 0
-61 -3 0
77 31 0
-77 -31 0
93 83 0
-93 -83 0
40 8 0
-40 -8 0
81 33 0
-81 -33 0
46 126 0
-46 -126 0
117 39 0
-117 -39 0
136 113 0
-136 -113 0
54 74 0
-54 -74 0
99 1 0
-99 -1 0
109 116 0
-109 -116 0
61 84 0
-61 -84 0
93 50 0
-93 -50 0
61 47 0
-61 -47 0
91 23 0
-91 -23 0
115 33 0
-115 -33 0
60 45 0
-60 -45 0
126 18 0
-126 -18 0
35 27 0
-35 -27 0
128 25 0
-128 -25 0
64 62 0
-64 -62 0
49 114 0
-49 -114 0
102 30 0
-102 -30 0
136 132 0
-136 -132 0
62 95 0
-62 -95 0
8 31 0
-8 -31 0
140 75 0
-140 -75 0
48 88 0
-48 -88 0
47 83 0
-47 -83 0
110 131 0
-110 -131 0
29 11 0
-29 -11 0
4 52 0
-4 -52 0
73 81 0
-73 -81 0
2 83 0
-2 -83 0
93 139 0
-93 -139 0
25 40 0
-25 -40 0
43 31 0
-43 -31 0
131 101 0
-131 -101 0
113 126 0
-113 -126 0
46 20 0
-46 -20 0
44 116 0
-44 -116 0
46 36 0
-46 -36 0
60 16 0
-60 -16 0
58 50 0
-58 -50 0
51 62 0
-51 -62 0
102 99 0
-102 -99 0
11 125 0
-11 -125 0
130 103 0
-130 -103 0
105 33 0
-105 -33 0
111 31 0
-111 -31 0
29 74 0
-29 -74 0
140 82 0
-140 -82 0
26 92 0
-26 -92 0
13 51 0
-13 -51 0
41 122 0
-41 -122 0
82 139 0
-82 -139 0
85 89 0
-85 -89 0
130 104 0
-130 -104 0
43 24 0
-43 -24 0
80 61 0
-80 -61 0
129 31 0
-129 -31 0
110 38 0
-110 -38 0
140 79 0
-140 -79 0
97 49 0
-97 -49 0
17 83 0
-17 -83 0
44 83 0
-44 -83 0
107 102 0
-107 -102 0
48 138 0
-48 -138 0
25 1 0
-25 -1 0
76 8 0
-76 -8 0
14 59 0
-14 -59 0
69 46 0
-69 -46 0
76 30 0
-76 -30 0
26 76 0
-26 -76 0
58 121 0
-58 -121 0
132 95 0
-132 -95 0
85 99 0
-85 -99 0
131 30 0
-131 -30 0
68 75 0
-68 -75 0
41 134 0
-41 -134 0
61 132 0
-61 -132 0
58 65 0
-58 -65 0
120 16 0
-120 -16 0
47 38 0
-47 -38 0
36 119 0
-36 -119 0
77 118 0
-77 -118 0
24 139 0
-24 -139 0
111 53 0
-111 -53 0
108 8 0
-108 -8 0
58 42 0
-58 -42 0
77 45 0
-77 -45 0
108 124 0
-108 -124 0
88 69 0
-88 -69 0
82 30 0
-82 -30 0
49 20 0
-49 -20 0
102 134 0
-102 -134 0
41 34 0
-41 -34 0
88 52 0
-88 -52 0
27 124 0
-27 -124 0
89 18 0
-89 -18 0
29 44 0
-29 -44 0
88 53 0
-88 -53 0
18 84 0
-18 -84 0
68 16 0
-68 -16 0
13 75 0
-13 -75 0
41 133 0
-41 -133 0
22 95 0
-22 -95 0
97 110 0
-97 -110 0
42 65 0
-42 -65 0
123 113 0
-123 -113 0
56 8 0
-56 -8 0
63 91 0
-63 -91 0
122 59 0
-122 -59 0
7 61 0
-7 -61 0
27 88 0
-27 -88 0
130 64 0
-130 -64 0
56 79 0
-56 -79 0
77 132 0
-77 -132 0
13 34 0
-13 -34 0
8 47 0
-8 -47 0
132 99 0
-132 -99 0
37 31 0
-37 -31 0
56 103 0
-56 -103 0
79 36 0
-79 -36 0
70 116 0
-70 -116 0
2 119 0
-2 -119 0
67 1 0
-67 -1 0
132 19 0
-132 -19 0
135 44 0
-135 -44 0
88 90 0
-88 -90 0
103 5 0
-103 -5 0
88 71 0
-88 -71 0
130 46 0
-130 -46 0
94 50 0
-94 -50 0
128 108 0
-128 -108 0
29 133 0
-29 -133 0
56 55 0
-56 -55 0
120 28 0
-120 -28 0
90 23 0
-90 -23 0
96 43 0
-96 -43 0
115 50 0
-115 -50 0
137 22 0
-137 -22 0
36 124 0
-36 -124 0
95 134 0
-95 -134 0
29 6 0
-29 -6 0
113 49 0
-113 -49 0
113 47 0
-113 -47 0
130 37 0
-130 -37 0
46 59 0
-46 -59 0
120 121 0
-120 -121 0
41 129 0
-41 -129 0
39 126 0
-39 -126 0
68 126 0
-68 -126 0
108 34 0
-108 -34 0
28 1 0
-28 -1 0
130 7 0
-130 -7 0
113 40 0
-113 -40 0
89 127 0
-89 -127 0
57 92 0
-57 -92 0
16 114 0
-16 -114 0
10 52 0
-10 -52 0
21 75 0
-21 -75 0
25 4 0
-25 -4 0
38 65 0
-38 -65 0
25 91 0
-25 -91 0
57 35 0
-57 -35 0
82 111 0
-82 -111 0
60 17 0
-60 -17 0
21 118 0
-21 -118 0
8 118 0
-8 -118 0
96 100 0
-96 -100 0
6 138 0
-6 -138 0
27 63 0
-27 -63 0
48 25 0
-48 -25 0
32 133 0
-32 -133 0
21 11 0
-21 -11 0
10 45 0
-10 -45 0
93 36 0
-93 -36 0
57 81 0
-57 -81 0
37 20 0
-37 -20 0
4 126 0
-4 -126 0
88 81 0
-88 -81 0
21 66 0
-21 -66 0
72 89 0
-72 -89 0
22 78 0
-22 -78 0
25 76 0
-25 -76 0
37 75 0
-37 -75 0
4 65 0
-4 -65 0
91 98 0
-91 -98 0
10 90 0
-10 -90 0
44 32 0
-44 -32 0
97 46 0
-97 -46 0
7 132 0
-7 -132 0
8 20 0
-8 -20 0
73 15 0
-73 -15 0
9 1 0
-9 -1 0
10 44 0
-10 -44 0
43 112 0
-43 -112 0
22 122 0
-22 -122 0
96 128 0
-96 -128 0
81 32 0
-81 -32 0
64 10 0
-64 -10 0
123 107 0
-123 -107 0
128 40 0
-128 -40 0
138 124 0
-138 -124 0
28 88 0
-28 -88 0
81 91 0
-81 -91 0
35 90 0
-35 -90 0
115 92 0
-115 -92 0
135 18 0
-135 -18 0
24 55 0
-24 -55 0
81 47 0
-81 -47 0
131 54 0
-131 -54 0
69 39 0
-69 -39 0
27 115 0
-27 -115 0
82 125 0
-82 -125 0
57 12 0
-57 -12 0
2 107 0
-2 -107 0
123 86 0
-123 -86 0
126 37 0
-126 -37 0
56 100 0
-56 -100 0
39 89 0
-39 -89 0
72 138 0
-72 -138 0
107 6 0
-107 -6 0
57 96 0
-57 -96 0
126 66 0
-126 -66 0
139 98 0
-139 -98 0
79 111 0
-79 -111 0
131 61 0
-131 -61 0
57 103 0
-57 -103 0
14 138 0
-14 -138 0
60 41 0
-60 -41 0
136 82 0
-136 -82 0
26 97 0
-26 -97 0
4 71 0
-4 -71 0
86 133 0
-86 -133 0
86 46 0
-86 -46 0
62 19 0
-62 -19 0
65 23 0
-65 -23 0
41 64 0
-41 -64 0
123 49 0
-123 -49 0
16 61 0
-16 -61 0
67 18 0
-67 -18 0
130 76 0
-130 -76 0
86 103 0
-86 -103 0
126 17 0
-126 -17 0
106 109 0
-106 -109 0
70 88 0
-70 -88 0
85 16 0
-85 -16 0
103 30 0
-103 -30 0
86 19 0
-86 -19 0
111 42 0
-111 -42 0
136 99 0
-136 -99 0
96 138 0
-96 -138 0
69 6 0
-69 -6 0
81 11 0
-81 -11 0
123 139 0
-123 -139 0
69 10 0
-69 -10 0
111 95 0
-111 -95 0
89 122 0
-89 -122 0
136 45 0
-136 -45 0
137 90 0
-137 -90 0
42 33 0
-42 -33 0
97 73 0
-97 -73 0
25 93 0
-25 -93 0
65 31 0
-65 -31 0
39 68 0
-39 -68 0
28 134 0
-28 -134 0
97 9 0
-97 -9 0
129 59 0
-129 -59 0
121 127 0
-121 -127 0
43 45 0
-43 -45 0
65 84 0
-65 -84 0
8 99 0
-8 -99 0
83 125 0
-83 -125 0
79 99 0
-79 -99 0
40 66 0
-40 -66 0
79 134 0
-79 -134 0
102 133 0
-102 -133 0
14 95 0
-14 -95 0
22 94 0
-22 -94 0
118 119 0
-118 -119 0
114 101 0
-114 -101 0
56 40 0
-56 -40 0
12 47 0
-12 -47 0
12 95 0
-12 -95 0
60 25 0
-60 -25 0
10 50 0
-10 -50 0
68 71 0
-68 -71 0
118 42 0
-118 -42 0
79 47 0
-79 -47 0
105 87 0
-105 -87 0
25 101 0
-25 -101 0
131 62 0
-131 -62 0
2 101 0
-2 -101 0
2 69 0
-2 -69 0
88 29 0
-88 -29 0
37 44 0
-37 -44 0
82 66 0
-82 -66 0
54 87 0
-54 -87 0
96 16 0
-96 -16 0
68 34 0
-68 -34 0
15 78 0
-15 -78 0
7 3 0
-7 -3 0
80 24 0
-80 -24 0
19 133 0
-19 -133 0
119 5 0
-119 -5 0
82 46 0
-82 -46 0
88 15 0
-88 -15 0
53 100 0
-53 -100 0
72 75 0
-72 -75 0
64 124 0
-64 -124 0
73 7 0
-73 -7 0
67 24 0
-67 -24 0
85 12 0
-85 -12 0
43 15 0
-43 -15 0
96 71 0
-96 -71 0
112 118 0
-112 -118 0
126 5 0
-126 -5 0
2 72 0
-2 -72 0
126 36 0
-126 -36 0
39 71 0
-39 -71 0
33 125 0
-33 -125 0
63 64 0
-63 -64 0
63 48 0
-63 -48 0
64 18 0
-64 -18 0
39 84 0
-39 -84 0
76 100 0
-76 -100 0
35 107 0
-35 -107 0
67 56 0
-67 -56 0
6 101 0
-6 -101 0
107 3 0
-107 -3 0
132 105 0
-132 -105 0
115 81 0
-115 -81 0
32 31 0
-32 -31 0
120 75 0
-120 -75 0
123 41 0
-123 -41 0
26 7 0
-26 -7 0
129 52 0
-129 -52 0
110 16 0
-110 -16 0
72 47 0
-72 -47 0
89 50 0
-89 -50 0
4 37 0
-4 -37 0
106 49 0
-106 -49 0
97 20 0
-97 -20 0
40 54 0
-40 -54 0
67 68 0
-67 -68 0
106 73 0
-106 -73 0
2 45 0
-2 -45 0
45 127 0
-45 -127 0
100 134 0
-100 -134 0
126 133 0
-126 -133 0
136 115 0
-136 -115 0
37 14 0
-37 -14 0
49 74 0
-49 -74 0
91 99 0
-91 -99 0
34 45 0
-34 -45 0
22 16 0
-22 -16 0
79 115 0
-79 -115 0
46 6 0
-46 -6 0
28 138 0
-28 -138 0
73 33 0
-73 -33 0
20 134 0
-20 -134 0
135 20 0
-135 -20 0
40 37 0
-40 -37 0
140 20 0
-140 -20 0
129 83 0
-129 -83 0
9 115 0
-9 -115 0
47 101 0
-47 -101 0
108 42 0
-108 -42 0
69 4 0
-69 -4 0
35 69 0
-35 -69 0
58 11 0
-58 -11 0
127 71 0
-127 -71 0
55 125 0
-55 -125 0
105 125 0
-105 -125 0
39 92 0
-39 -92 0
62 3 0
-62 -3 0
56 73 0
-56 -73 0
64 59 0
-64 -59 0
117 36 0
-117 -36 0
64 49 0
-64 -49 0
139 95 0
-139 -95 0
104 78 0
-104 -78 0
79 17 0
-79 -17 0
85 77 0
-85 -77 0
140 31 0
-140 -31 0
73 75 0
-73 -75 0
123 10 0
-123 -10 0
118 66 0
-118 -66 0
9 99 0
-9 -99 0
20 138 0
-20 -138 0
139 116 0
-139 -116 0
25 95 0
-25 -95 0
57 52 0
-57 -52 0
57 128 0
-57 -128 0
49 87 0
-49 -87 0
85 124 0
-85 -124 0
139 118 0
-139 -118 0
72 16 0
-72 -16 0
57 109 0
-57 -109 0
123 62 0
-123 -62 0
8 95 0
-8 -95 0
64 127 0
-64 -127 0
67 112 0
-67 -112 0
88 23 0
-88 -23 0
63 66 0
-63 -66 0
86 36 0
-86 -36 0
78 55 0
-78 -55 0
63 10 0
-63 -10 0
122 83 0
-122 -83 0
94 30 0
-94 -30 0
49 17 0
-49 -17 0
48 77 0
-48 -77 0
121 5 0
-121 -5 0
80 30 0
-80 -30 0
136 4 0
-136 -4 0
37 125 0
-37 -125 0
28 94 0
-28 -94 0
46 42 0
-46 -42 0
119 125 0
-119 -125 0
85 112 0
-85 -112 0
114 92 0
-114 -92 0
101 31 0
-101 -31 0
126 125 0
-126 -125 0
28 54 0
-28 -54 0
25 125 0
-25 -125 0
110 1 0
-110 -1 0
33 127 0
-33 -127 0
35 109 0
-35 -109 0
120 133 0
-120 -133 0
37 42 0
-37 -42 0
117 74 0
-117 -74 0
101 59 0
-101 -59 0
107 95 0
-107 -95 0
67 103 0
-67 -103 0
104 14 0
-104 -14 0
117 22 0
-117 -22 0
